c 9th DIMACS Implementation Challenge: Shortest Paths
c http://www.dis.uniroma1.it/~challenge9
c Sample graph file
c
p sp 6 8
c
a 1 2 10
a 1 3 20
a 2 4 22
a 3 5 22
a 4 3 28
a 4 6 20
a 5 2 20
a 5 6 10
